# Solution for model Transicion a camiones eléctricos
# Objective value = 8667087.36
y_clh[1,1,1] 0
y_clh[1,1,2] 0
y_clh[1,1,3] 0
y_clh[1,1,4] 0
y_clh[1,1,5] 0
y_clh[1,1,6] 0
y_clh[1,1,7] 0
y_clh[1,1,8] 0
y_clh[1,1,9] 0
y_clh[1,1,10] 0
y_clh[1,1,11] 0
y_clh[1,1,12] 0
y_clh[1,1,13] 0
y_clh[1,1,14] 0
y_clh[1,1,15] 0
y_clh[1,1,16] 0
y_clh[1,1,17] 0
y_clh[1,1,18] 0
y_clh[1,1,19] 0
y_clh[1,1,20] 0
y_clh[1,1,21] 0
y_clh[1,1,22] 0
y_clh[1,1,23] 0
y_clh[1,1,24] 0
y_clh[1,2,1] 0
y_clh[1,2,2] 0
y_clh[1,2,3] 0
y_clh[1,2,4] 0
y_clh[1,2,5] 1
y_clh[1,2,6] 0
y_clh[1,2,7] 0
y_clh[1,2,8] 0
y_clh[1,2,9] 0
y_clh[1,2,10] 0
y_clh[1,2,11] 0
y_clh[1,2,12] 0
y_clh[1,2,13] 1
y_clh[1,2,14] 0
y_clh[1,2,15] 0
y_clh[1,2,16] 0
y_clh[1,2,17] 0
y_clh[1,2,18] 0
y_clh[1,2,19] 0
y_clh[1,2,20] 0
y_clh[1,2,21] 0
y_clh[1,2,22] 0
y_clh[1,2,23] 0
y_clh[1,2,24] 0
y_clh[1,3,1] 0
y_clh[1,3,2] 0
y_clh[1,3,3] 0
y_clh[1,3,4] 0
y_clh[1,3,5] 0
y_clh[1,3,6] 0
y_clh[1,3,7] 0
y_clh[1,3,8] 0
y_clh[1,3,9] 0
y_clh[1,3,10] 0
y_clh[1,3,11] 0
y_clh[1,3,12] 0
y_clh[1,3,13] 0
y_clh[1,3,14] 0
y_clh[1,3,15] 0
y_clh[1,3,16] 0
y_clh[1,3,17] 0
y_clh[1,3,18] 0
y_clh[1,3,19] 0
y_clh[1,3,20] 0
y_clh[1,3,21] 0
y_clh[1,3,22] 0
y_clh[1,3,23] 0
y_clh[1,3,24] 0
y_clh[1,4,1] 0
y_clh[1,4,2] 0
y_clh[1,4,3] 0
y_clh[1,4,4] 0
y_clh[1,4,5] 0
y_clh[1,4,6] 0
y_clh[1,4,7] 0
y_clh[1,4,8] 0
y_clh[1,4,9] 0
y_clh[1,4,10] 0
y_clh[1,4,11] 0
y_clh[1,4,12] 0
y_clh[1,4,13] 0
y_clh[1,4,14] 0
y_clh[1,4,15] 0
y_clh[1,4,16] 0
y_clh[1,4,17] 0
y_clh[1,4,18] 0
y_clh[1,4,19] 0
y_clh[1,4,20] 0
y_clh[1,4,21] 0
y_clh[1,4,22] 0
y_clh[1,4,23] 0
y_clh[1,4,24] 0
y_clh[2,1,1] 0
y_clh[2,1,2] 1
y_clh[2,1,3] 0
y_clh[2,1,4] 0
y_clh[2,1,5] 0
y_clh[2,1,6] 0
y_clh[2,1,7] 0
y_clh[2,1,8] 0
y_clh[2,1,9] 0
y_clh[2,1,10] 0
y_clh[2,1,11] 0
y_clh[2,1,12] 0
y_clh[2,1,13] 0
y_clh[2,1,14] 0
y_clh[2,1,15] 0
y_clh[2,1,16] 0
y_clh[2,1,17] 0
y_clh[2,1,18] 0
y_clh[2,1,19] 0
y_clh[2,1,20] 0
y_clh[2,1,21] 0
y_clh[2,1,22] 0
y_clh[2,1,23] 0
y_clh[2,1,24] 0
y_clh[2,2,1] 0
y_clh[2,2,2] 0
y_clh[2,2,3] 0
y_clh[2,2,4] 0
y_clh[2,2,5] 0
y_clh[2,2,6] 0
y_clh[2,2,7] 0
y_clh[2,2,8] 0
y_clh[2,2,9] 0
y_clh[2,2,10] 0
y_clh[2,2,11] 0
y_clh[2,2,12] 0
y_clh[2,2,13] 0
y_clh[2,2,14] 0
y_clh[2,2,15] 0
y_clh[2,2,16] 0
y_clh[2,2,17] 0
y_clh[2,2,18] 0
y_clh[2,2,19] 0
y_clh[2,2,20] 0
y_clh[2,2,21] 0
y_clh[2,2,22] 0
y_clh[2,2,23] 0
y_clh[2,2,24] 0
y_clh[2,3,1] 0
y_clh[2,3,2] 0
y_clh[2,3,3] 0
y_clh[2,3,4] 0
y_clh[2,3,5] 0
y_clh[2,3,6] 0
y_clh[2,3,7] 0
y_clh[2,3,8] 0
y_clh[2,3,9] 0
y_clh[2,3,10] 0
y_clh[2,3,11] 0
y_clh[2,3,12] 0
y_clh[2,3,13] 0
y_clh[2,3,14] 0
y_clh[2,3,15] 0
y_clh[2,3,16] 0
y_clh[2,3,17] 0
y_clh[2,3,18] 0
y_clh[2,3,19] 0
y_clh[2,3,20] 0
y_clh[2,3,21] 0
y_clh[2,3,22] 0
y_clh[2,3,23] 0
y_clh[2,3,24] 0
y_clh[2,4,1] 0
y_clh[2,4,2] 0
y_clh[2,4,3] 0
y_clh[2,4,4] 0
y_clh[2,4,5] 0
y_clh[2,4,6] 0
y_clh[2,4,7] 0
y_clh[2,4,8] 0
y_clh[2,4,9] 0
y_clh[2,4,10] 0
y_clh[2,4,11] 0
y_clh[2,4,12] 0
y_clh[2,4,13] 0
y_clh[2,4,14] 0
y_clh[2,4,15] 0
y_clh[2,4,16] 0
y_clh[2,4,17] 0
y_clh[2,4,18] 1
y_clh[2,4,19] 0
y_clh[2,4,20] 0
y_clh[2,4,21] 0
y_clh[2,4,22] 0
y_clh[2,4,23] 0
y_clh[2,4,24] 0
x_crh[1,1,1] 0
x_crh[1,1,2] 0
x_crh[1,1,3] 0
x_crh[1,1,4] 0
x_crh[1,1,5] 0
x_crh[1,1,6] 0
x_crh[1,1,7] 0
x_crh[1,1,8] 0
x_crh[1,1,9] 0
x_crh[1,1,10] 0
x_crh[1,1,11] 0
x_crh[1,1,12] 0
x_crh[1,1,13] 0
x_crh[1,1,14] 0
x_crh[1,1,15] 0
x_crh[1,1,16] 0
x_crh[1,1,17] 0
x_crh[1,1,18] 0
x_crh[1,1,19] 0
x_crh[1,1,20] 0
x_crh[1,1,21] 0
x_crh[1,1,22] 0
x_crh[1,1,23] 0
x_crh[1,1,24] 0
x_crh[1,2,1] 0
x_crh[1,2,2] 0
x_crh[1,2,3] 0
x_crh[1,2,4] 0
x_crh[1,2,5] 0
x_crh[1,2,6] 0
x_crh[1,2,7] 0
x_crh[1,2,8] 0
x_crh[1,2,9] 0
x_crh[1,2,10] 0
x_crh[1,2,11] 0
x_crh[1,2,12] 0
x_crh[1,2,13] 0
x_crh[1,2,14] 0
x_crh[1,2,15] 0
x_crh[1,2,16] 0
x_crh[1,2,17] 0
x_crh[1,2,18] 0
x_crh[1,2,19] 0
x_crh[1,2,20] 0
x_crh[1,2,21] 0
x_crh[1,2,22] 0
x_crh[1,2,23] 0
x_crh[1,2,24] 0
x_crh[1,3,1] 0
x_crh[1,3,2] 0
x_crh[1,3,3] 0
x_crh[1,3,4] 0
x_crh[1,3,5] 0
x_crh[1,3,6] 0
x_crh[1,3,7] 0
x_crh[1,3,8] 0
x_crh[1,3,9] 0
x_crh[1,3,10] 0
x_crh[1,3,11] 0
x_crh[1,3,12] 0
x_crh[1,3,13] 0
x_crh[1,3,14] 0
x_crh[1,3,15] 0
x_crh[1,3,16] 0
x_crh[1,3,17] 0
x_crh[1,3,18] 0
x_crh[1,3,19] 0
x_crh[1,3,20] 0
x_crh[1,3,21] 0
x_crh[1,3,22] 0
x_crh[1,3,23] 0
x_crh[1,3,24] 0
x_crh[2,1,1] 0
x_crh[2,1,2] 0
x_crh[2,1,3] 0
x_crh[2,1,4] 0
x_crh[2,1,5] 0
x_crh[2,1,6] 0
x_crh[2,1,7] 0
x_crh[2,1,8] 0
x_crh[2,1,9] 0
x_crh[2,1,10] 0
x_crh[2,1,11] 0
x_crh[2,1,12] 0
x_crh[2,1,13] 0
x_crh[2,1,14] 0
x_crh[2,1,15] 0
x_crh[2,1,16] 0
x_crh[2,1,17] 0
x_crh[2,1,18] 0
x_crh[2,1,19] 0
x_crh[2,1,20] 0
x_crh[2,1,21] 0
x_crh[2,1,22] 0
x_crh[2,1,23] 0
x_crh[2,1,24] 0
x_crh[2,2,1] 0
x_crh[2,2,2] 0
x_crh[2,2,3] 0
x_crh[2,2,4] 0
x_crh[2,2,5] 0
x_crh[2,2,6] 0
x_crh[2,2,7] 0
x_crh[2,2,8] 0
x_crh[2,2,9] 0
x_crh[2,2,10] 0
x_crh[2,2,11] 0
x_crh[2,2,12] 0
x_crh[2,2,13] 0
x_crh[2,2,14] 0
x_crh[2,2,15] 0
x_crh[2,2,16] 0
x_crh[2,2,17] 0
x_crh[2,2,18] 0
x_crh[2,2,19] 0
x_crh[2,2,20] 0
x_crh[2,2,21] 0
x_crh[2,2,22] 0
x_crh[2,2,23] 0
x_crh[2,2,24] 0
x_crh[2,3,1] 0
x_crh[2,3,2] 0
x_crh[2,3,3] 0
x_crh[2,3,4] 0
x_crh[2,3,5] 0
x_crh[2,3,6] 0
x_crh[2,3,7] 0
x_crh[2,3,8] 0
x_crh[2,3,9] 0
x_crh[2,3,10] 0
x_crh[2,3,11] 0
x_crh[2,3,12] 0
x_crh[2,3,13] 0
x_crh[2,3,14] 0
x_crh[2,3,15] 0
x_crh[2,3,16] 0
x_crh[2,3,17] 0
x_crh[2,3,18] 0
x_crh[2,3,19] 0
x_crh[2,3,20] 0
x_crh[2,3,21] 0
x_crh[2,3,22] 0
x_crh[2,3,23] 0
x_crh[2,3,24] 0
u_lh[1,1] 0
u_lh[1,2] 0
u_lh[1,3] 0
u_lh[1,4] 0
u_lh[1,5] 0
u_lh[1,6] 0
u_lh[1,7] 0
u_lh[1,8] 0
u_lh[1,9] 0
u_lh[1,10] 0
u_lh[1,11] 0
u_lh[1,12] 0
u_lh[1,13] 0
u_lh[1,14] 0
u_lh[1,15] 0
u_lh[1,16] 0
u_lh[1,17] 0
u_lh[1,18] 0
u_lh[1,19] 0
u_lh[1,20] 0
u_lh[1,21] 0
u_lh[1,22] 0
u_lh[1,23] 0
u_lh[1,24] 0
u_lh[2,1] 0
u_lh[2,2] 0
u_lh[2,3] 0
u_lh[2,4] 0
u_lh[2,5] 0
u_lh[2,6] 0
u_lh[2,7] 0
u_lh[2,8] 0
u_lh[2,9] 0
u_lh[2,10] 0
u_lh[2,11] 0
u_lh[2,12] 0
u_lh[2,13] 0
u_lh[2,14] 0
u_lh[2,15] 0
u_lh[2,16] 0
u_lh[2,17] 0
u_lh[2,18] 0
u_lh[2,19] 0
u_lh[2,20] 0
u_lh[2,21] 0
u_lh[2,22] 0
u_lh[2,23] 0
u_lh[2,24] 0
u_lh[3,1] 0
u_lh[3,2] 0
u_lh[3,3] 0
u_lh[3,4] 0
u_lh[3,5] 0
u_lh[3,6] 0
u_lh[3,7] 0
u_lh[3,8] 0
u_lh[3,9] 0
u_lh[3,10] 0
u_lh[3,11] 0
u_lh[3,12] 0
u_lh[3,13] 0
u_lh[3,14] 0
u_lh[3,15] 0
u_lh[3,16] 0
u_lh[3,17] 0
u_lh[3,18] 0
u_lh[3,19] 0
u_lh[3,20] 0
u_lh[3,21] 0
u_lh[3,22] 0
u_lh[3,23] 0
u_lh[3,24] 0
u_lh[4,1] 0
u_lh[4,2] 0
u_lh[4,3] 0
u_lh[4,4] 0
u_lh[4,5] 0
u_lh[4,6] 0
u_lh[4,7] 0
u_lh[4,8] 0
u_lh[4,9] 0
u_lh[4,10] 0
u_lh[4,11] 0
u_lh[4,12] 0
u_lh[4,13] 0
u_lh[4,14] 0
u_lh[4,15] 0
u_lh[4,16] 0
u_lh[4,17] 0
u_lh[4,18] 0
u_lh[4,19] 0
u_lh[4,20] 0
u_lh[4,21] 0
u_lh[4,22] 0
u_lh[4,23] 0
u_lh[4,24] 0
v_rh[1,1] 0
v_rh[1,2] 0
v_rh[1,3] 0
v_rh[1,4] 0
v_rh[1,5] 0
v_rh[1,6] 0
v_rh[1,7] 0
v_rh[1,8] 0
v_rh[1,9] 0
v_rh[1,10] 0
v_rh[1,11] 0
v_rh[1,12] 0
v_rh[1,13] 0
v_rh[1,14] 0
v_rh[1,15] 0
v_rh[1,16] 0
v_rh[1,17] 0
v_rh[1,18] 0
v_rh[1,19] 0
v_rh[1,20] 0
v_rh[1,21] 0
v_rh[1,22] 0
v_rh[1,23] 0
v_rh[1,24] 0
v_rh[2,1] 0
v_rh[2,2] 0
v_rh[2,3] 0
v_rh[2,4] 0
v_rh[2,5] 0
v_rh[2,6] 0
v_rh[2,7] 0
v_rh[2,8] 0
v_rh[2,9] 0
v_rh[2,10] 0
v_rh[2,11] 0
v_rh[2,12] 0
v_rh[2,13] 0
v_rh[2,14] 0
v_rh[2,15] 0
v_rh[2,16] 0
v_rh[2,17] 0
v_rh[2,18] 0
v_rh[2,19] 0
v_rh[2,20] 0
v_rh[2,21] 0
v_rh[2,22] 0
v_rh[2,23] 0
v_rh[2,24] 0
v_rh[3,1] 0
v_rh[3,2] 0
v_rh[3,3] 0
v_rh[3,4] 0
v_rh[3,5] 0
v_rh[3,6] 0
v_rh[3,7] 0
v_rh[3,8] 0
v_rh[3,9] 0
v_rh[3,10] 0
v_rh[3,11] 0
v_rh[3,12] 0
v_rh[3,13] 0
v_rh[3,14] 0
v_rh[3,15] 0
v_rh[3,16] 0
v_rh[3,17] 0
v_rh[3,18] 0
v_rh[3,19] 0
v_rh[3,20] 0
v_rh[3,21] 0
v_rh[3,22] 0
v_rh[3,23] 0
v_rh[3,24] 0
d_ch[1,1] 0
d_ch[1,2] 0
d_ch[1,3] 0
d_ch[1,4] 0
d_ch[1,5] 0
d_ch[1,6] 0
d_ch[1,7] 0
d_ch[1,8] 0
d_ch[1,9] 0
d_ch[1,10] 0
d_ch[1,11] 0
d_ch[1,12] 0
d_ch[1,13] 0
d_ch[1,14] 0
d_ch[1,15] 0
d_ch[1,16] 0
d_ch[1,17] 0
d_ch[1,18] 0
d_ch[1,19] 0
d_ch[1,20] 0
d_ch[1,21] 0
d_ch[1,22] 0
d_ch[1,23] 0
d_ch[1,24] 0
d_ch[2,1] 0
d_ch[2,2] 0
d_ch[2,3] 0
d_ch[2,4] 0
d_ch[2,5] 0
d_ch[2,6] 0
d_ch[2,7] 0
d_ch[2,8] 0
d_ch[2,9] 0
d_ch[2,10] 0
d_ch[2,11] 0
d_ch[2,12] 0
d_ch[2,13] 0
d_ch[2,14] 0
d_ch[2,15] 0
d_ch[2,16] 0
d_ch[2,17] 0
d_ch[2,18] 0
d_ch[2,19] 0
d_ch[2,20] 0
d_ch[2,21] 0
d_ch[2,22] 0
d_ch[2,23] 0
d_ch[2,24] 0
t_ch[1,1] 0
t_ch[1,2] 0
t_ch[1,3] 0
t_ch[1,4] 0
t_ch[1,5] 0
t_ch[1,6] 0
t_ch[1,7] 0
t_ch[1,8] 0
t_ch[1,9] 0
t_ch[1,10] 0
t_ch[1,11] 0
t_ch[1,12] 0
t_ch[1,13] 0
t_ch[1,14] 0
t_ch[1,15] 0
t_ch[1,16] 0
t_ch[1,17] 0
t_ch[1,18] 0
t_ch[1,19] 0
t_ch[1,20] 0
t_ch[1,21] 0
t_ch[1,22] 0
t_ch[1,23] 1
t_ch[1,24] 0
t_ch[2,1] 0
t_ch[2,2] 0
t_ch[2,3] 0
t_ch[2,4] 0
t_ch[2,5] 0
t_ch[2,6] 0
t_ch[2,7] 0
t_ch[2,8] 0
t_ch[2,9] 0
t_ch[2,10] 0
t_ch[2,11] 0
t_ch[2,12] 0
t_ch[2,13] 0
t_ch[2,14] 0
t_ch[2,15] 0
t_ch[2,16] 0
t_ch[2,17] 0
t_ch[2,18] 0
t_ch[2,19] 0
t_ch[2,20] 0
t_ch[2,21] 0
t_ch[2,22] 0
t_ch[2,23] 1
t_ch[2,24] 0
ex_c[1] 2
ex_c[2] 1
